#pLT is two-dimensional [i,r]=[component, individual]
#[i,*] means all data in row i.

param pLT := 
[1,*]
1  0    2  7    3  5    4  7    5  2    6  5    

[2,*]
1  3    2  3    3  5    4  2    5  4    6  2    
;